words_hard_train/9245.qaiger
aag 89 16 0 1 73
2
4
12
14
18
22
26
30
40
42
46
62
78
94
110
126
178
6 2 4
8 3 5
10 7 9
16 13 15
20 16 19
24 20 23
28 24 27
32 28 31
34 11 33
36 10 32
38 35 37
44 40 43
48 47 13
50 46 12
52 49 51
54 44 52
56 55 51
58 12 14
60 59 17
64 61 63
66 60 62
68 65 67
70 57 68
72 71 67
74 17 18
76 75 21
80 77 79
82 76 78
84 81 83
86 73 84
88 87 83
90 21 22
92 91 25
96 93 95
98 92 94
100 97 99
102 89 100
104 103 99
106 25 26
108 107 29
112 109 111
114 108 110
116 113 115
118 105 116
120 119 115
122 29 30
124 123 33
128 125 127
130 124 126
132 129 131
134 121 132
136 135 131
138 38 137
140 39 136
142 139 141
144 45 53
146 72 85
148 145 147
150 56 69
152 148 151
154 83 101
156 152 155
158 156 103
160 71 55
162 160 87
164 158 162
166 115 133
168 164 167
170 104 117
172 171 119
174 168 172
176 174 135
178 143 177
i0 1 x1[7]
i1 2 y2[7]
i2 1 x1[1]
i3 1 x1[2]
i4 1 x1[3]
i5 1 x1[4]
i6 1 x1[5]
i7 1 x1[6]
i8 2 y2[0]
i9 1 x1[0]
i10 2 y2[1]
i11 2 y2[2]
i12 2 y2[3]
i13 2 y2[4]
i14 2 y2[5]
i15 2 y2[6]
o0 bv[0]
c
simplified
  <
    add
      subtract
        1
        1 x1
      2 y2
    invert
      1
