words_hard_train/9245.qaiger.qdimacs
p cnf 89 220
a 1 6 7 9 11 13 15 21 0
e 2 3 4 5 8 10 12 14 16 17 18 19 20 22 23 24 25 26 27 28 29 30 31 32 33 34 35 36 37 38 39 40 41 42 43 44 45 46 47 48 49 50 51 52 53 54 55 56 57 58 59 60 61 62 63 64 65 66 67 68 69 70 71 72 73 74 75 76 77 78 79 80 81 82 83 84 85 86 87 88 89 0
-1 -2 3 0
1 -3 0
2 -3 0
1 2 4 0
-1 -4 0
-2 -4 0
3 4 5 0
-3 -5 0
-4 -5 0
6 7 8 0
-6 -8 0
-7 -8 0
-8 9 10 0
8 -10 0
-9 -10 0
-10 11 12 0
10 -12 0
-11 -12 0
-12 13 14 0
12 -14 0
-13 -14 0
-14 15 16 0
14 -16 0
-15 -16 0
5 16 17 0
-5 -17 0
-16 -17 0
-5 -16 18 0
5 -18 0
16 -18 0
17 18 19 0
-17 -19 0
-18 -19 0
-20 21 22 0
20 -22 0
-21 -22 0
23 6 24 0
-23 -24 0
-6 -24 0
-23 -6 25 0
23 -25 0
6 -25 0
24 25 26 0
-24 -26 0
-25 -26 0
-22 -26 27 0
22 -27 0
26 -27 0
27 25 28 0
-27 -28 0
-25 -28 0
-6 -7 29 0
6 -29 0
7 -29 0
29 8 30 0
-29 -30 0
-8 -30 0
30 31 32 0
-30 -32 0
-31 -32 0
-30 -31 33 0
30 -33 0
31 -33 0
32 33 34 0
-32 -34 0
-33 -34 0
28 -34 35 0
-28 -35 0
34 -35 0
35 33 36 0
-35 -36 0
-33 -36 0
8 -9 37 0
-8 -37 0
9 -37 0
37 10 38 0
-37 -38 0
-10 -38 0
38 39 40 0
-38 -40 0
-39 -40 0
-38 -39 41 0
38 -41 0
39 -41 0
40 41 42 0
-40 -42 0
-41 -42 0
36 -42 43 0
-36 -43 0
42 -43 0
43 41 44 0
-43 -44 0
-41 -44 0
10 -11 45 0
-10 -45 0
11 -45 0
45 12 46 0
-45 -46 0
-12 -46 0
46 47 48 0
-46 -48 0
-47 -48 0
-46 -47 49 0
46 -49 0
47 -49 0
48 49 50 0
-48 -50 0
-49 -50 0
44 -50 51 0
-44 -51 0
50 -51 0
51 49 52 0
-51 -52 0
-49 -52 0
12 -13 53 0
-12 -53 0
13 -53 0
53 14 54 0
-53 -54 0
-14 -54 0
54 55 56 0
-54 -56 0
-55 -56 0
-54 -55 57 0
54 -57 0
55 -57 0
56 57 58 0
-56 -58 0
-57 -58 0
52 -58 59 0
-52 -59 0
58 -59 0
59 57 60 0
-59 -60 0
-57 -60 0
14 -15 61 0
-14 -61 0
15 -61 0
61 16 62 0
-61 -62 0
-16 -62 0
62 63 64 0
-62 -64 0
-63 -64 0
-62 -63 65 0
62 -65 0
63 -65 0
64 65 66 0
-64 -66 0
-65 -66 0
60 -66 67 0
-60 -67 0
66 -67 0
67 65 68 0
-67 -68 0
-65 -68 0
-19 68 69 0
19 -69 0
-68 -69 0
19 -68 70 0
-19 -70 0
68 -70 0
69 70 71 0
-69 -71 0
-70 -71 0
22 26 72 0
-22 -72 0
-26 -72 0
-36 42 73 0
36 -73 0
-42 -73 0
72 73 74 0
-72 -74 0
-73 -74 0
-28 34 75 0
28 -75 0
-34 -75 0
-74 75 76 0
74 -76 0
-75 -76 0
41 50 77 0
-41 -77 0
-50 -77 0
-76 77 78 0
76 -78 0
-77 -78 0
-78 51 79 0
78 -79 0
-51 -79 0
35 27 80 0
-35 -80 0
-27 -80 0
-80 43 81 0
80 -81 0
-43 -81 0
-79 -81 82 0
79 -82 0
81 -82 0
57 66 83 0
-57 -83 0
-66 -83 0
-82 83 84 0
82 -84 0
-83 -84 0
-52 58 85 0
52 -85 0
-58 -85 0
85 59 86 0
-85 -86 0
-59 -86 0
-84 -86 87 0
84 -87 0
86 -87 0
-87 67 88 0
87 -88 0
-67 -88 0
71 88 89 0
-71 -89 0
-88 -89 0
89 0
